
Gurobi 12.0.1 (win64, C++) logging started Thu Apr 17 16:42:56 2025

Set parameter Username
Set parameter LicenseID to value 2618655
Academic license - for non-commercial use only - expires 2026-02-05
Set parameter Threads to value 8
Set parameter LazyConstraints to value 1
Set parameter PreCrush to value 1
Set parameter Seed to value 0
Set parameter Cuts to value -1
Set parameter TimeLimit to value 28800
Set parameter NumericFocus to value 0
Set parameter SolutionLimit to value 10000
Gurobi Optimizer version 12.0.1 build v12.0.1rc0 (win64 - Windows Server 2022.0 (20348.2))

CPU model: AMD EPYC 7513 32-Core Processor, instruction set [SSE2|AVX|AVX2]
Thread count: 18 physical cores, 18 logical processors, using up to 8 threads

Non-default parameters:
SolutionLimit  10000
TimeLimit  28800
PreCrush  1
Threads  8
LazyConstraints  1

Optimize a model with 256 rows, 484 columns and 1390 nonzeros
Model fingerprint: 0xce33e9ae
Variable types: 0 continuous, 484 integer (484 binary)
Coefficient statistics:
  Matrix range     [1e+00, 1e+00]
  Objective range  [3e+00, 8e+01]
  Bounds range     [1e+00, 1e+00]
  RHS range        [1e+00, 6e+00]

User MIP start produced solution with objective 416.35 (0.00s)
Loaded user MIP start with objective 416.35

Presolve removed 2 rows and 24 columns
Presolve time: 0.00s
Presolved: 254 rows, 460 columns, 1342 nonzeros
Variable types: 0 continuous, 460 integer (460 binary)

Root relaxation: objective 3.091569e+02, 78 iterations, 0.01 seconds (0.00 work units)

    Nodes    |    Current Node    |     Objective Bounds      |     Work
 Expl Unexpl |  Obj  Depth IntInf | Incumbent    BestBd   Gap | It/Node Time

     0     0  309.15693    0   20  416.35025  309.15693  25.7%     -    0s
     0     0  334.42091    0    -  416.35025  334.42091  19.7%     -    0s
     0     0  345.59782    0   23  416.35025  345.59782  17.0%     -    0s
     0     0  360.53978    0   25  416.35025  360.53978  13.4%     -    0s
     0     0  366.36155    0    -  416.35025  366.36155  12.0%     -    0s
     0     0  366.68738    0    -  416.35025  366.68738  11.9%     -    0s
     0     0  370.24752    0   35  416.35025  370.24752  11.1%     -    0s
     0     0  370.24752    0   45  416.35025  370.24752  11.1%     -    0s
     0     0  370.24752    0   27  416.35025  370.24752  11.1%     -    0s
     0     2  370.24752    0   27  416.35025  370.24752  11.1%     -    0s
H   19    11                     407.5096924  376.50912  7.61%  20.0    3s
    42    27  383.36364    5   40  407.50969  379.43110  6.89%  21.6   12s
H   52    39                     395.6358416  380.00295  3.95%  22.5   12s
   102    68  385.37242   10   45  395.63584  381.68853  3.53%  21.7   15s
   664   290     cutoff   17       395.63584  384.73303  2.76%  14.0   20s
   773   273     cutoff   15       395.63584  385.75024  2.50%  15.1   27s

Cutting planes:
  GUB cover: 1
  Zero half: 2
  Lazy constraints: 1349

Explored 1781 nodes (29434 simplex iterations) in 28.42 seconds (1.85 work units)
Thread count was 8 (of 18 available processors)

Solution count 3: 395.636 407.51 416.35 

Optimal solution found (tolerance 1.00e-04)
Best objective 3.956358415971e+02, best bound 3.956358415971e+02, gap 0.0000%

User-callback calls 3963, time in user-callback 26.82 sec
### START EXACT APPROACH ###
ProblemVariant: 4
### START PREPROCESSING ###
## Start infeasible path procedure ## 
Deleted arcs: 2
Infeasible tail paths: 2
Infeasible 2-node combinations: 1
## Start extended infeasible path procedure ##
Deleted arcs: 2
Infeasible tail paths: 2
Infeasible 2-node combinations: 1
## Start start solution procedure ##
Start solution with 5 Vehicles and total costs 416.35 in 2.06745 s.
### END PREPROCESSING ###
Route 0 0-9-7-5-2-1-6-0 : weight util 0.933333 | volume util 0.675956 | infeasible with packing heuristic | feasible with CP model
Route 1 0-10-8-3-4-11-0 : weight util 0.683333 | volume util 0.761089 | infeasible with packing heuristic | feasible with CP model
Route 2 0-13-19-21-14-0 : weight util 0.800000 | volume util 0.627911 | infeasible with packing heuristic | feasible with CP model
Route 3 0-16-0 : weight util 0.350000 | volume util 0.143200 | feasible with packing heuristic | feasible with CP model
Route 4 0-17-20-18-15-12-0 : weight util 0.983333 | volume util 0.726644 | infeasible with packing heuristic | feasible with CP model
